NAME : qa194
COMMENT : 194 locations in Qatar
COMMENT : Derived from National Imagery and Mapping Agency data
TYPE : TSP
DIMENSION : 194
EDGE_WEIGHT_TYPE : EUC_2D
NODE_COORD_SECTION
1 24748.3333 50840.0000
2 24758.8889 51211.9444
3 24827.2222 51394.7222
4 24904.4444 51175.0000
5 24996.1111 51548.8889
6 25010.0000 51039.4444
7 25030.8333 51275.2778
8 25067.7778 51077.5000
EOF
